(declare-const a Real)
(declare-const b Real)
(declare-const c Real)
(assert (= (* a b c) 1))
(assert (> a 0))
(assert (> b 0))
(assert (> c 0))
(assert (not (<= (+ (* -922640384 (pow b 4)) (* -711876608 (pow a 4)) (* 1109952 (pow (+ (* 2 a) (* 2 b)) 4)) (* -1811939328 (pow a (pow 3 -1)) (pow b (/ 11 3))) (* -905969664 (pow a (/ 10 3)) (pow b (/ 2 3))) (* 67333618433135206306202779648 (pow a 3) (pow b 3) (pow (+ (* 917405696 b) (* 3150872576 a)) -2))) 0)))
(check-sat)
(get-model)
(exit)